p cnf 180 344               
-5 -4 -10 0
10 -12 0
4 5 -11 0
11 -12 0
12 -19 0
-7 -6 -13 0
13 -15 0
6 7 -14 0
14 -15 0
15 -19 0
-9 -8 -16 0
16 -18 0
8 9 -17 0
17 -18 0
18 -19 0
-4 -20 0
5 -20 0
4 -5 20 0
-1 20 -21 0
1 -20 -21 0
20 -20 -21 0
21 -26 0
-6 -22 0
7 -22 0
6 -7 22 0
-2 22 -23 0
2 -22 -23 0
22 -22 -23 0
23 -26 0
-8 -24 0
9 -24 0
8 -9 24 0
-3 24 -25 0
3 -24 -25 0
24 -24 -25 0
25 -26 0
3 -32 0
-9 -27 0
-7 -27 0
-5 -27 0
9 7 5 27 0
27 -29 0
4 -28 0
6 -28 0
8 -28 0
-4 -6 -8 28 0
28 -29 0
-27 -28 29 0
29 -32 0
-3 -29 32 0
-32 -37 0
29 -37 0
32 37 -38 0
38 39 0
2 -31 0
29 -31 0
-2 -29 31 0
-31 -35 0
29 -35 0
31 35 -36 0
36 39 0
1 -30 0
29 -30 0
-1 -29 30 0
-30 -33 0
29 -33 0
30 33 -34 0
34 39 0
-39 -131 0
32 -131 0
3 -45 0
-8 -40 0
-7 -40 0
-5 -40 0
8 7 5 40 0
40 -42 0
4 -41 0
6 -41 0
9 -41 0
-4 -6 -9 41 0
41 -42 0
-40 -41 42 0
42 -45 0
-3 -42 45 0
-45 -50 0
42 -50 0
45 50 -51 0
51 52 0
2 -44 0
42 -44 0
-2 -42 44 0
-44 -48 0
42 -48 0
44 48 -49 0
49 52 0
1 -43 0
42 -43 0
-1 -42 43 0
-43 -46 0
42 -46 0
43 46 -47 0
47 52 0
-52 -134 0
50 -134 0
3 -58 0
-9 -53 0
-6 -53 0
-5 -53 0
9 6 5 53 0
53 -55 0
4 -54 0
7 -54 0
8 -54 0
-4 -7 -8 54 0
54 -55 0
-53 -54 55 0
55 -58 0
-3 -55 58 0
-58 -63 0
55 -63 0
58 63 -64 0
64 65 0
2 -57 0
55 -57 0
-2 -55 57 0
-57 -61 0
55 -61 0
57 61 -62 0
62 65 0
1 -56 0
55 -56 0
-1 -55 56 0
-56 -59 0
55 -59 0
56 59 -60 0
60 65 0
-65 -135 0
58 -135 0
3 -71 0
-8 -66 0
-6 -66 0
-5 -66 0
8 6 5 66 0
66 -68 0
4 -67 0
7 -67 0
9 -67 0
-4 -7 -9 67 0
67 -68 0
-66 -67 68 0
68 -71 0
-3 -68 71 0
-71 -76 0
68 -76 0
71 76 -77 0
77 78 0
2 -70 0
68 -70 0
-2 -68 70 0
-70 -74 0
68 -74 0
70 74 -75 0
75 78 0
1 -69 0
68 -69 0
-1 -68 69 0
-69 -72 0
68 -72 0
69 72 -73 0
73 78 0
-78 -138 0
76 -138 0
3 -84 0
-9 -79 0
-7 -79 0
-4 -79 0
9 7 4 79 0
79 -81 0
5 -80 0
6 -80 0
8 -80 0
-5 -6 -8 80 0
80 -81 0
-79 -80 81 0
81 -84 0
-3 -81 84 0
-84 -89 0
81 -89 0
84 89 -90 0
90 91 0
2 -83 0
81 -83 0
-2 -81 83 0
-83 -87 0
81 -87 0
83 87 -88 0
88 91 0
1 -82 0
81 -82 0
-1 -81 82 0
-82 -85 0
81 -85 0
82 85 -86 0
86 91 0
-91 -139 0
84 -139 0
3 -97 0
-8 -92 0
-7 -92 0
-4 -92 0
8 7 4 92 0
92 -94 0
5 -93 0
6 -93 0
9 -93 0
-5 -6 -9 93 0
93 -94 0
-92 -93 94 0
94 -97 0
-3 -94 97 0
-97 -102 0
94 -102 0
97 102 -103 0
103 104 0
2 -96 0
94 -96 0
-2 -94 96 0
-96 -100 0
94 -100 0
96 100 -101 0
101 104 0
1 -95 0
94 -95 0
-1 -94 95 0
-95 -98 0
94 -98 0
95 98 -99 0
99 104 0
-104 -142 0
102 -142 0
3 -110 0
-9 -105 0
-6 -105 0
-4 -105 0
9 6 4 105 0
105 -107 0
5 -106 0
7 -106 0
8 -106 0
-5 -7 -8 106 0
106 -107 0
-105 -106 107 0
107 -110 0
-3 -107 110 0
-110 -115 0
107 -115 0
110 115 -116 0
116 117 0
2 -109 0
107 -109 0
-2 -107 109 0
-109 -113 0
107 -113 0
109 113 -114 0
114 117 0
1 -108 0
107 -108 0
-1 -107 108 0
-108 -111 0
107 -111 0
108 111 -112 0
112 117 0
-117 -143 0
110 -143 0
3 -123 0
-8 -118 0
-6 -118 0
-4 -118 0
8 6 4 118 0
118 -120 0
5 -119 0
7 -119 0
9 -119 0
-5 -7 -9 119 0
119 -120 0
-118 -119 120 0
120 -123 0
-3 -120 123 0
-123 -128 0
120 -128 0
123 128 -129 0
129 130 0
2 -122 0
120 -122 0
-2 -120 122 0
-122 -126 0
120 -126 0
122 126 -127 0
127 130 0
1 -121 0
120 -121 0
-1 -120 121 0
-121 -124 0
120 -124 0
121 124 -125 0
125 130 0
-130 -146 0
128 -146 0
-39 -147 0
31 -147 0
-52 -149 0
44 -149 0
-65 -152 0
61 -152 0
-78 -154 0
74 -154 0
-91 -155 0
83 -155 0
-104 -157 0
96 -157 0
-117 -160 0
113 -160 0
-130 -162 0
126 -162 0
-39 -163 0
30 -163 0
-52 -165 0
43 -165 0
-65 -167 0
56 -167 0
-78 -169 0
69 -169 0
-91 -172 0
85 -172 0
-104 -174 0
98 -174 0
-117 -176 0
111 -176 0
-130 -178 0
124 -178 0
131 134 135 138 139 142 143 146 147 149 152 154 155 157 160 162 163 165 167 169 172 174 176 178 -179 0
19 0
26 0
179 0
